N = 96;
M = 218;
Edge_Start = [1, 1, 2, 3, 3, 4, 5, 5, 7, 8, 9, 9, 10, 11, 11, 12, 13, 14, 15, 15, 16, 17, 18, 19, 19, 20, 21, 21, 23, 23, 24, 25, 25, 26, 27, 28, 28, 30, 30, 31, 32, 32, 33, 34, 36, 36, 37, 38, 39, 40, 42, 43, 43, 44, 45, 46, 47, 47, 48, 49, 49, 50, 51, 52, 53, 54, 55, 56, 57, 58, 58, 60, 60, 61, 62, 62, 64, 64, 65, 66, 67, 68, 68, 70, 71, 71, 72, 73, 73, 74, 75, 76, 77, 77, 78, 79, 79, 81, 83, 84, 85, 86, 88, 89, 91, 92, 93, 94, 95, 2, 14, 3, 4, 16, 5, 6, 18, 20, 9, 10, 22, 11, 12, 24, 13, 26, 15, 16, 29, 17, 31, 19, 20, 33, 21, 22, 35, 24, 37, 25, 26, 39, 27, 41, 29, 42, 31, 44, 32, 33, 46, 34, 35, 37, 50, 38, 39, 40, 41, 43, 44, 57, 45, 59, 47, 48, 61, 49, 50, 63, 51, 65, 53, 54, 55, 69, 57, 58, 59, 72, 61, 74, 62, 63, 76, 65, 78, 66, 67, 68, 69, 82, 71, 72, 84, 73, 74, 86, 75, 88, 77, 78, 90, 79, 80, 92, 82, 96, 85, 86, 87, 89, 90, 92, 93, 94, 95, 96];
Edge_End = [2, 14, 3, 4, 16, 5, 6, 18, 20, 9, 10, 22, 11, 12, 24, 13, 26, 15, 16, 29, 17, 31, 19, 20, 33, 21, 22, 35, 24, 37, 25, 26, 39, 27, 41, 29, 42, 31, 44, 32, 33, 46, 34, 35, 37, 50, 38, 39, 40, 41, 43, 44, 57, 45, 59, 47, 48, 61, 49, 50, 63, 51, 65, 53, 54, 55, 69, 57, 58, 59, 72, 61, 74, 62, 63, 76, 65, 78, 66, 67, 68, 69, 82, 71, 72, 84, 73, 74, 86, 75, 88, 77, 78, 90, 79, 80, 92, 82, 96, 85, 86, 87, 89, 90, 92, 93, 94, 95, 96, 1, 1, 2, 3, 3, 4, 5, 5, 7, 8, 9, 9, 10, 11, 11, 12, 13, 14, 15, 15, 16, 17, 18, 19, 19, 20, 21, 21, 23, 23, 24, 25, 25, 26, 27, 28, 28, 30, 30, 31, 32, 32, 33, 34, 36, 36, 37, 38, 39, 40, 42, 43, 43, 44, 45, 46, 47, 47, 48, 49, 49, 50, 51, 52, 53, 54, 55, 56, 57, 58, 58, 60, 60, 61, 62, 62, 64, 64, 65, 66, 67, 68, 68, 70, 71, 71, 72, 73, 73, 74, 75, 76, 77, 77, 78, 79, 79, 81, 83, 84, 85, 86, 88, 89, 91, 92, 93, 94, 95];
L = [9, 19, 8, 9, 3, 17, 8, 18, 8, 12, 16, 5, 3, 2, 16, 12, 7, 9, 12, 5, 11, 10, 2, 18, 2, 12, 6, 4, 9, 19, 11, 5, 4, 7, 3, 7, 5, 7, 7, 12, 18, 2, 16, 3, 11, 18, 10, 3, 11, 1, 13, 9, 10, 17, 12, 10, 10, 2, 17, 13, 8, 16, 5, 5, 19, 17, 19, 5, 3, 1, 2, 15, 9, 12, 9, 16, 11, 3, 15, 11, 5, 18, 11, 16, 11, 2, 5, 4, 10, 17, 8, 13, 15, 8, 1, 7, 19, 5, 17, 16, 17, 15, 2, 1, 16, 4, 16, 11, 9, 9, 19, 8, 9, 3, 17, 8, 18, 8, 12, 16, 5, 3, 2, 16, 12, 7, 9, 12, 5, 11, 10, 2, 18, 2, 12, 6, 4, 9, 19, 11, 5, 4, 7, 3, 7, 5, 7, 7, 12, 18, 2, 16, 3, 11, 18, 10, 3, 11, 1, 13, 9, 10, 17, 12, 10, 10, 2, 17, 13, 8, 16, 5, 5, 19, 17, 19, 5, 3, 1, 2, 15, 9, 12, 9, 16, 11, 3, 15, 11, 5, 18, 11, 16, 11, 2, 5, 4, 10, 17, 8, 13, 15, 8, 1, 7, 19, 5, 17, 16, 17, 15, 2, 1, 16, 4, 16, 11, 9];
T = [15, 12, 9, 1, 1, 19, 6, 23, 14, 6, 14, 1, 6, 1, 20, 15, 14, 7, 8, 8, 12, 13, 1, 24, 3, 17, 12, 10, 9, 21, 14, 1, 3, 5, 6, 14, 3, 9, 6, 19, 23, 1, 21, 4, 9, 20, 7, 10, 5, 1, 11, 6, 9, 15, 2, 15, 3, 1, 20, 11, 1, 10, 3, 1, 17, 13, 20, 7, 11, 1, 4, 16, 5, 15, 6, 20, 5, 1, 17, 6, 1, 10, 15, 9, 6, 1, 7, 1, 8, 7, 1, 12, 12, 3, 1, 8, 19, 1, 17, 11, 13, 13, 1, 3, 16, 1, 18, 21, 5, 15, 12, 9, 1, 1, 19, 6, 23, 14, 6, 14, 1, 6, 1, 20, 15, 14, 7, 8, 8, 12, 13, 1, 24, 3, 17, 12, 10, 9, 21, 14, 1, 3, 5, 6, 14, 3, 9, 6, 19, 23, 1, 21, 4, 9, 20, 7, 10, 5, 1, 11, 6, 9, 15, 2, 15, 3, 1, 20, 11, 1, 10, 3, 1, 17, 13, 20, 7, 11, 1, 4, 16, 5, 15, 6, 20, 5, 1, 17, 6, 1, 10, 15, 9, 6, 1, 7, 1, 8, 7, 1, 12, 12, 3, 1, 8, 19, 1, 17, 11, 13, 13, 1, 3, 16, 1, 18, 21, 5];
Lower_Bound = [0, 15, 24, 25, 44, 50, 106, 125, 119, 133, 139, 140, 155, 12, 19, 25, 37, 67, 68, 92, 106, 118, 168, 159, 168, 169, 174, 41, 27, 59, 50, 69, 71, 92, 96, 139, 148, 155, 165, 170, 171, 44, 55, 61, 76, 70, 85, 88, 108, 119, 123, 205, 204, 187, 174, 71, 64, 75, 76, 92, 86, 101, 107, 115, 120, 137, 143, 144, 154, 94, 85, 79, 86, 87, 94, 114, 102, 114, 115, 123, 160, 159, 196, 86, 97, 94, 107, 95, 96, 99, 150, 134, 135, 153, 174, 179];
Upper_Bound = [0, 15, 24, 25, 44, 50, 106, 125, 119, 133, 139, 140, 155, 12, 19, 25, 37, 67, 68, 92, 106, 118, 168, 159, 168, 169, 174, 41, 27, 59, 50, 69, 71, 92, 96, 139, 148, 155, 165, 170, 171, 44, 55, 61, 76, 70, 85, 88, 108, 119, 123, 205, 204, 187, 174, 71, 64, 75, 76, 92, 86, 101, 107, 115, 120, 137, 143, 144, 154, 94, 85, 79, 86, 87, 94, 114, 102, 114, 115, 123, 160, 159, 196, 86, 97, 94, 107, 95, 96, 99, 150, 134, 135, 153, 174, 179];
Start = 1;
End = 96;
Time = 179;
